(declare-sort sk 0)
(declare-datatype list ((nil) (cons (head sk) (tail list))))
(declare-datatype Nat ((Z) (S (proj1-S Nat))))
(define-fun-rec
  length
  ((x list)) Nat
  (match x
    ((nil Z)
     ((cons y xs) (S (length xs))))))
(define-fun-rec
  double
  ((x Nat)) Nat
  (match x
    ((Z Z)
     ((S y) (S (S (double y)))))))
(define-fun-rec
  ++
  ((x list) (y list)) list
  (match x
    ((nil y)
     ((cons z xs) (cons z (++ xs y))))))
(assert
  (not
    (forall ((x list)) (= (length (++ x x)) (double (length x))))))
(check-sat)
